p edge 85 1061
e 1 3
e 1 6
e 1 7
e 1 16
e 1 24
e 1 27
e 1 28
e 1 29
e 1 38
e 1 45
e 1 48
e 1 51
e 1 52
e 1 54
e 1 58
e 1 59
e 1 61
e 1 64
e 1 66
e 1 67
e 1 68
e 1 70
e 1 72
e 1 75
e 1 81
e 2 10
e 2 16
e 2 18
e 2 30
e 2 31
e 2 32
e 2 36
e 2 40
e 2 45
e 2 47
e 2 48
e 2 50
e 2 52
e 2 65
e 2 68
e 2 69
e 2 78
e 2 79
e 2 83
e 2 84
e 3 5
e 3 6
e 3 11
e 3 12
e 3 16
e 3 18
e 3 19
e 3 22
e 3 23
e 3 31
e 3 33
e 3 43
e 3 44
e 3 47
e 3 48
e 3 51
e 3 56
e 3 59
e 3 61
e 3 63
e 3 67
e 3 70
e 3 80
e 3 81
e 4 5
e 4 7
e 4 14
e 4 15
e 4 19
e 4 29
e 4 30
e 4 32
e 4 35
e 4 37
e 4 38
e 4 39
e 4 41
e 4 45
e 4 50
e 4 52
e 4 53
e 4 55
e 4 56
e 4 64
e 4 65
e 4 70
e 4 72
e 4 73
e 4 77
e 4 83
e 5 7
e 5 10
e 5 12
e 5 15
e 5 16
e 5 24
e 5 26
e 5 31
e 5 33
e 5 35
e 5 36
e 5 37
e 5 38
e 5 43
e 5 48
e 5 49
e 5 50
e 5 51
e 5 52
e 5 54
e 5 55
e 5 56
e 5 67
e 5 71
e 5 73
e 5 76
e 5 79
e 5 80
e 6 10
e 6 11
e 6 13
e 6 14
e 6 15
e 6 16
e 6 17
e 6 18
e 6 23
e 6 28
e 6 31
e 6 46
e 6 48
e 6 49
e 6 50
e 6 51
e 6 56
e 6 57
e 6 61
e 6 68
e 6 70
e 6 73
e 6 80
e 7 9
e 7 12
e 7 14
e 7 18
e 7 19
e 7 21
e 7 24
e 7 27
e 7 28
e 7 29
e 7 31
e 7 32
e 7 33
e 7 36
e 7 37
e 7 39
e 7 49
e 7 50
e 7 52
e 7 54
e 7 56
e 7 59
e 7 65
e 7 70
e 7 80
e 8 10
e 8 12
e 8 13
e 8 17
e 8 20
e 8 26
e 8 27
e 8 29
e 8 32
e 8 35
e 8 39
e 8 41
e 8 42
e 8 48
e 8 52
e 8 55
e 8 57
e 8 60
e 8 62
e 8 63
e 8 64
e 8 66
e 8 68
e 8 70
e 8 71
e 8 72
e 8 73
e 8 76
e 8 78
e 9 10
e 9 14
e 9 17
e 9 20
e 9 21
e 9 25
e 9 27
e 9 28
e 9 29
e 9 34
e 9 35
e 9 36
e 9 38
e 9 43
e 9 46
e 9 48
e 9 53
e 9 55
e 9 57
e 9 65
e 9 69
e 9 83
e 9 84
e 10 11
e 10 12
e 10 19
e 10 20
e 10 24
e 10 25
e 10 29
e 10 31
e 10 33
e 10 36
e 10 39
e 10 40
e 10 49
e 10 51
e 10 54
e 10 56
e 10 58
e 10 59
e 10 67
e 10 76
e 10 77
e 10 79
e 10 80
e 11 18
e 11 20
e 11 22
e 11 33
e 11 34
e 11 35
e 11 38
e 11 39
e 11 42
e 11 44
e 11 45
e 11 46
e 11 50
e 11 53
e 11 55
e 11 58
e 11 60
e 11 65
e 11 67
e 11 72
e 11 73
e 11 76
e 11 78
e 11 80
e 12 18
e 12 20
e 12 21
e 12 31
e 12 33
e 12 35
e 12 40
e 12 43
e 12 46
e 12 48
e 12 49
e 12 50
e 12 54
e 12 57
e 12 58
e 12 59
e 12 61
e 12 63
e 12 65
e 12 68
e 12 73
e 12 76
e 12 77
e 12 79
e 12 81
e 12 85
e 13 15
e 13 16
e 13 24
e 13 26
e 13 29
e 13 32
e 13 35
e 13 41
e 13 53
e 13 57
e 13 59
e 13 63
e 13 64
e 13 72
e 13 79
e 13 81
e 13 82
e 13 85
e 14 16
e 14 17
e 14 25
e 14 32
e 14 35
e 14 38
e 14 41
e 14 43
e 14 45
e 14 46
e 14 47
e 14 50
e 14 52
e 14 57
e 14 71
e 14 75
e 14 76
e 14 80
e 14 81
e 14 83
e 15 23
e 15 24
e 15 26
e 15 28
e 15 33
e 15 37
e 15 44
e 15 46
e 15 47
e 15 48
e 15 53
e 15 55
e 15 56
e 15 64
e 15 70
e 15 71
e 15 72
e 15 74
e 15 80
e 15 85
e 16 25
e 16 31
e 16 35
e 16 37
e 16 39
e 16 44
e 16 47
e 16 59
e 16 62
e 16 65
e 16 73
e 16 79
e 16 80
e 16 83
e 17 26
e 17 28
e 17 31
e 17 33
e 17 36
e 17 37
e 17 39
e 17 40
e 17 49
e 17 53
e 17 61
e 17 67
e 17 70
e 17 72
e 17 76
e 17 77
e 18 22
e 18 24
e 18 26
e 18 28
e 18 31
e 18 32
e 18 33
e 18 34
e 18 46
e 18 49
e 18 51
e 18 52
e 18 54
e 18 61
e 18 62
e 18 67
e 18 69
e 18 74
e 18 75
e 18 82
e 19 24
e 19 25
e 19 27
e 19 28
e 19 31
e 19 32
e 19 33
e 19 36
e 19 43
e 19 47
e 19 49
e 19 50
e 19 52
e 19 53
e 19 55
e 19 58
e 19 59
e 19 60
e 19 67
e 19 69
e 19 70
e 19 72
e 19 73
e 19 76
e 19 81
e 19 85
e 20 25
e 20 31
e 20 37
e 20 42
e 20 44
e 20 49
e 20 55
e 20 58
e 20 63
e 20 68
e 20 69
e 20 73
e 20 75
e 20 81
e 20 82
e 20 85
e 21 29
e 21 30
e 21 32
e 21 42
e 21 47
e 21 53
e 21 56
e 21 62
e 21 63
e 21 66
e 21 71
e 21 74
e 21 75
e 21 78
e 21 83
e 22 25
e 22 28
e 22 31
e 22 36
e 22 40
e 22 41
e 22 42
e 22 43
e 22 46
e 22 49
e 22 51
e 22 59
e 22 65
e 22 68
e 22 73
e 22 74
e 22 77
e 22 85
e 23 24
e 23 29
e 23 33
e 23 37
e 23 44
e 23 49
e 23 50
e 23 55
e 23 56
e 23 57
e 23 58
e 23 60
e 23 62
e 23 66
e 23 68
e 23 73
e 23 74
e 23 75
e 23 76
e 23 77
e 23 80
e 23 85
e 24 27
e 24 36
e 24 45
e 24 47
e 24 50
e 24 54
e 24 56
e 24 60
e 24 61
e 24 67
e 24 71
e 24 75
e 24 76
e 24 83
e 24 84
e 25 32
e 25 35
e 25 37
e 25 39
e 25 40
e 25 41
e 25 42
e 25 49
e 25 53
e 25 56
e 25 63
e 25 65
e 25 67
e 25 74
e 25 75
e 25 77
e 25 78
e 25 80
e 26 36
e 26 37
e 26 39
e 26 42
e 26 43
e 26 48
e 26 49
e 26 50
e 26 51
e 26 53
e 26 55
e 26 56
e 26 57
e 26 59
e 26 61
e 26 62
e 26 63
e 26 64
e 26 66
e 26 80
e 27 28
e 27 30
e 27 32
e 27 36
e 27 40
e 27 45
e 27 46
e 27 50
e 27 51
e 27 53
e 27 54
e 27 57
e 27 59
e 27 63
e 27 64
e 27 68
e 27 69
e 27 76
e 27 77
e 27 78
e 27 80
e 27 81
e 28 30
e 28 32
e 28 35
e 28 38
e 28 48
e 28 52
e 28 53
e 28 54
e 28 59
e 28 62
e 28 69
e 28 78
e 28 83
e 28 84
e 29 36
e 29 37
e 29 43
e 29 45
e 29 46
e 29 48
e 29 53
e 29 56
e 29 60
e 29 70
e 29 73
e 29 77
e 29 78
e 29 79
e 29 82
e 29 83
e 30 35
e 30 36
e 30 39
e 30 43
e 30 46
e 30 53
e 30 54
e 30 58
e 30 62
e 30 63
e 30 64
e 30 65
e 30 67
e 30 70
e 30 72
e 30 76
e 30 77
e 30 79
e 30 81
e 30 83
e 30 85
e 31 38
e 31 42
e 31 45
e 31 49
e 31 50
e 31 56
e 31 57
e 31 58
e 31 60
e 31 63
e 31 69
e 31 70
e 31 73
e 31 76
e 31 79
e 31 82
e 31 84
e 32 34
e 32 39
e 32 40
e 32 42
e 32 46
e 32 47
e 32 49
e 32 55
e 32 60
e 32 64
e 32 67
e 32 76
e 33 37
e 33 46
e 33 48
e 33 58
e 33 62
e 33 73
e 33 74
e 33 80
e 33 82
e 33 83
e 33 85
e 34 36
e 34 40
e 34 42
e 34 44
e 34 49
e 34 55
e 34 60
e 34 61
e 34 71
e 34 73
e 34 74
e 34 78
e 34 79
e 34 83
e 34 84
e 35 36
e 35 49
e 35 50
e 35 53
e 35 55
e 35 56
e 35 57
e 35 65
e 35 70
e 35 71
e 35 73
e 35 74
e 35 77
e 35 80
e 35 82
e 35 83
e 36 37
e 36 38
e 36 48
e 36 49
e 36 57
e 36 60
e 36 62
e 36 69
e 36 71
e 36 84
e 37 39
e 37 41
e 37 43
e 37 49
e 37 51
e 37 53
e 37 54
e 37 56
e 37 59
e 37 60
e 37 62
e 37 63
e 37 66
e 37 68
e 37 71
e 37 81
e 37 83
e 37 84
e 38 40
e 38 52
e 38 57
e 38 60
e 38 62
e 38 63
e 38 65
e 38 66
e 38 69
e 38 72
e 38 83
e 39 40
e 39 43
e 39 44
e 39 49
e 39 52
e 39 55
e 39 57
e 39 60
e 39 61
e 39 63
e 39 65
e 39 67
e 39 69
e 39 70
e 39 76
e 39 77
e 39 80
e 39 83
e 39 84
e 40 48
e 40 52
e 40 62
e 40 63
e 40 64
e 40 68
e 40 69
e 40 77
e 40 79
e 41 42
e 41 44
e 41 47
e 41 49
e 41 52
e 41 53
e 41 59
e 41 61
e 41 63
e 41 68
e 41 69
e 41 74
e 41 75
e 41 78
e 41 80
e 42 47
e 42 48
e 42 49
e 42 50
e 42 51
e 42 52
e 42 55
e 42 56
e 42 59
e 42 68
e 42 73
e 42 80
e 43 44
e 43 46
e 43 50
e 43 60
e 43 68
e 43 69
e 43 74
e 43 75
e 43 78
e 43 84
e 44 48
e 44 55
e 44 62
e 44 63
e 44 69
e 44 70
e 44 75
e 44 77
e 44 81
e 44 82
e 44 83
e 45 47
e 45 48
e 45 52
e 45 53
e 45 55
e 45 56
e 45 59
e 45 60
e 45 61
e 45 65
e 45 68
e 45 69
e 45 73
e 45 74
e 45 78
e 45 79
e 45 82
e 45 83
e 46 49
e 46 52
e 46 53
e 46 54
e 46 55
e 46 59
e 46 61
e 46 62
e 46 63
e 46 66
e 46 69
e 46 73
e 46 75
e 46 77
e 46 80
e 46 81
e 46 82
e 46 83
e 46 85
e 47 55
e 47 59
e 47 60
e 47 68
e 47 70
e 47 72
e 47 75
e 47 76
e 47 77
e 47 79
e 47 81
e 48 53
e 48 54
e 48 55
e 48 57
e 48 63
e 48 80
e 48 85
e 49 53
e 49 61
e 49 63
e 49 70
e 49 72
e 49 74
e 49 75
e 49 78
e 49 79
e 49 80
e 49 83
e 49 84
e 50 54
e 50 55
e 50 56
e 50 58
e 50 59
e 50 69
e 50 74
e 50 81
e 50 82
e 51 61
e 51 62
e 51 80
e 51 82
e 52 53
e 52 54
e 52 58
e 52 61
e 52 64
e 52 69
e 52 71
e 52 75
e 52 79
e 52 82
e 52 83
e 53 54
e 53 58
e 53 61
e 53 62
e 53 64
e 53 68
e 53 69
e 53 76
e 53 79
e 53 80
e 54 55
e 54 59
e 54 61
e 54 65
e 54 74
e 54 75
e 54 85
e 55 56
e 55 57
e 55 60
e 55 62
e 55 68
e 55 69
e 55 78
e 56 63
e 56 64
e 56 68
e 56 69
e 56 70
e 56 85
e 57 59
e 57 63
e 57 70
e 57 72
e 57 75
e 57 78
e 57 81
e 57 82
e 57 85
e 58 60
e 58 61
e 58 62
e 58 67
e 58 69
e 58 71
e 58 74
e 58 80
e 59 61
e 59 64
e 59 70
e 59 72
e 59 74
e 59 75
e 59 77
e 59 79
e 59 80
e 59 81
e 59 82
e 60 72
e 60 77
e 61 65
e 61 66
e 61 72
e 61 73
e 61 76
e 61 80
e 61 81
e 61 83
e 62 65
e 62 69
e 62 73
e 62 77
e 62 79
e 62 82
e 62 83
e 62 85
e 63 64
e 63 67
e 63 68
e 63 70
e 63 75
e 63 76
e 63 79
e 64 65
e 64 69
e 64 73
e 64 75
e 64 76
e 64 77
e 64 78
e 64 81
e 64 82
e 64 83
e 64 84
e 65 68
e 65 71
e 65 77
e 65 79
e 66 77
e 66 82
e 66 85
e 67 70
e 67 71
e 67 73
e 67 79
e 67 81
e 68 70
e 68 73
e 68 75
e 68 76
e 68 77
e 68 78
e 68 79
e 68 80
e 68 83
e 68 85
e 69 79
e 69 82
e 69 84
e 70 71
e 70 73
e 70 79
e 70 82
e 70 83
e 71 74
e 71 75
e 71 80
e 71 82
e 72 75
e 72 76
e 72 83
e 72 84
e 73 75
e 73 79
e 73 81
e 73 83
e 74 76
e 74 77
e 74 79
e 74 80
e 74 81
e 74 82
e 75 77
e 75 83
e 76 83
e 77 78
e 77 79
e 77 81
e 77 83
e 78 81
e 78 84
e 79 82
e 79 85
e 80 85
e 81 84
e 83 84
e 84 85
